14
1 0 7
2 0 7
2 1 3
3 0 6
3 1 3
3 2 3
4 0 3
4 1 3
4 2 6
4 3 3
5 0 7
5 1 6
5 2 5
5 3 4
5 4 7
6 0 7
6 1 5
6 2 7
6 3 7
6 4 5
6 5 4
7 0 6
7 1 5
7 2 6
7 3 7
7 4 6
7 5 3
7 6 6
8 0 7
8 1 7
8 2 5
8 3 3
8 4 3
8 5 5
8 6 6
8 7 4
9 0 7
9 1 4
9 2 6
9 3 5
9 4 7
9 5 5
9 6 5
9 7 3
9 8 6
10 0 5
10 1 4
10 2 4
10 3 7
10 4 5
10 5 7
10 6 4
10 7 3
10 8 3
10 9 6
11 0 4
11 1 5
11 2 5
11 3 6
11 4 5
11 5 3
11 6 5
11 7 3
11 8 7
11 9 5
11 10 6
12 0 6
12 1 3
12 2 5
12 3 5
12 4 7
12 5 3
12 6 3
12 7 4
12 8 6
12 9 6
12 10 4
12 11 4
13 0 3
13 1 5
13 2 4
13 3 7
13 4 7
13 5 5
13 6 7
13 7 4
13 8 7
13 9 7
13 10 7
13 11 5
13 12 7
